Welcome to the CBC MILP Solver 
Version: 2.10.3 
Build Date: Dec 15 2019 

command line - C:\Users\hungt\AppData\Local\Packages\PythonSoftwareFoundation.Python.3.9_qbz5n2kfra8p0\LocalCache\local-packages\Python39\site-packages\pulp\solverdir\cbc\win\64\cbc.exe C:\Users\hungt\AppData\Local\Temp\d6a1c57597f34e278519a98dafcb21a6-pulp.mps timeMode elapsed branch printingOptions all solution C:\Users\hungt\AppData\Local\Temp\d6a1c57597f34e278519a98dafcb21a6-pulp.sol (default strategy 1)
At line 2 NAME          MODEL
At line 3 ROWS
At line 10 COLUMNS
At line 32 RHS
At line 38 BOUNDS
At line 45 ENDATA
Problem MODEL has 5 rows, 6 columns and 15 elements
Coin0008I MODEL read with 0 errors
Option for timeMode changed from cpu to elapsed
Presolve 3 (-2) rows, 3 (-3) columns and 7 (-8) elements
0  Obj 6 Primal inf 18.266665 (2)
2  Obj 17.866667
Optimal - objective value 17.866667
After Postsolve, objective 17.866667, infeasibilities - dual 0 (0), primal 0 (0)
Optimal objective 17.86666667 - 2 iterations time 0.002, Presolve 0.00
Option for printingOptions changed from normal to all
Total time (CPU seconds):       0.00   (Wallclock seconds):       0.00

